(declare-fun var0 () String)
(assert (RegexIn var0 (RegexConcat (RegexUnion (RegexPlus (Str2Reg "~")) (RegexStar (Str2Reg "000"))) (RegexConcat (RegexStar (RegexUnion (Str2Reg "|") (Str2Reg "}}}"))) (RegexConcat (RegexUnion (RegexUnion (Str2Reg "_") (Str2Reg "``")) (RegexStar (Str2Reg "{{{"))) (RegexConcat (RegexUnion (RegexStar (Str2Reg "\\\\\\")) (RegexUnion (Str2Reg "]") (Str2Reg "^^^"))) (RegexConcat (RegexPlus (RegexStar (Str2Reg "[["))) (RegexConcat (RegexPlus (RegexStar (Str2Reg "@@@"))) (RegexConcat (RegexStar (RegexUnion (Str2Reg ">>>") (Str2Reg "???"))) (RegexConcat (RegexPlus (RegexPlus (Str2Reg "="))) (RegexConcat (RegexUnion (RegexUnion (Str2Reg ":::") (Str2Reg ";")) (RegexStar (Str2Reg "<<<"))) (RegexConcat (RegexUnion (RegexUnion (Str2Reg ",,,") (Str2Reg "---")) (RegexUnion (Str2Reg "...") (Str2Reg "//"))) (RegexConcat (RegexStar (RegexStar (Str2Reg "++"))) (RegexConcat (RegexStar (RegexPlus (Str2Reg "***"))) (RegexConcat (RegexPlus (RegexUnion (Str2Reg "(((") (Str2Reg "))"))) (RegexConcat (RegexUnion (RegexStar (Str2Reg "&&&")) (RegexStar (Str2Reg "'"))) (RegexConcat (RegexPlus (RegexPlus (Str2Reg "%%%"))) (RegexConcat (RegexPlus (RegexUnion (Str2Reg "##") (Str2Reg "$$$"))) (RegexConcat (RegexPlus (RegexStar (Str2Reg "\"\""))) (RegexConcat (RegexUnion (RegexStar (Str2Reg "ZZZ")) (RegexStar (Str2Reg "!"))) (RegexConcat (RegexPlus (RegexPlus (Str2Reg "YY"))) (RegexConcat (RegexStar (RegexPlus (Str2Reg "XX"))) (RegexConcat (RegexStar (RegexUnion (Str2Reg "VVV") (Str2Reg "W"))) (RegexConcat (RegexUnion (RegexPlus (Str2Reg "SS")) (RegexUnion (Str2Reg "TT") (Str2Reg "U"))) (RegexConcat (RegexStar (RegexPlus (Str2Reg "RR"))) (RegexConcat (RegexPlus (RegexStar (Str2Reg "QQQ"))) (RegexConcat (RegexPlus (RegexStar (Str2Reg "PPP"))) (RegexConcat (RegexUnion (RegexStar (Str2Reg "N")) (RegexStar (Str2Reg "OO"))) (RegexConcat (RegexPlus (RegexUnion (Str2Reg "L") (Str2Reg "M"))) (RegexConcat (RegexUnion (RegexUnion (Str2Reg "III") (Str2Reg "JJ")) (RegexStar (Str2Reg "K"))) (RegexConcat (RegexPlus (RegexPlus (Str2Reg "HHH"))) (RegexConcat (RegexUnion (RegexPlus (Str2Reg "F")) (RegexStar (Str2Reg "G"))) (RegexConcat (RegexStar (RegexUnion (Str2Reg "D") (Str2Reg "EEE"))) (RegexConcat (RegexPlus (RegexStar (Str2Reg "CC"))) (RegexConcat (RegexUnion (RegexUnion (Str2Reg "yyy") (Str2Reg "zzz")) (RegexUnion (Str2Reg "A") (Str2Reg "B"))) (RegexConcat (RegexUnion (RegexUnion (Str2Reg "v") (Str2Reg "www")) (RegexStar (Str2Reg "xxx"))) (RegexConcat (RegexUnion (RegexPlus (Str2Reg "tt")) (RegexStar (Str2Reg "uu"))) (RegexConcat (RegexStar (RegexPlus (Str2Reg "sss"))) (RegexConcat (RegexStar (RegexStar (Str2Reg "rr"))) (RegexConcat (RegexPlus (RegexPlus (Str2Reg "qqq"))) (RegexConcat (RegexUnion (RegexStar (Str2Reg "nn")) (RegexUnion (Str2Reg "o") (Str2Reg "p"))) (RegexConcat (RegexStar (RegexStar (Str2Reg "m"))) (RegexConcat (RegexStar (RegexPlus (Str2Reg "l"))) (RegexConcat (RegexStar (RegexPlus (Str2Reg "k"))) (RegexConcat (RegexStar (RegexStar (Str2Reg "jjj"))) (RegexConcat (RegexUnion (RegexUnion (Str2Reg "g") (Str2Reg "h")) (RegexPlus (Str2Reg "i"))) (RegexConcat (RegexPlus (RegexStar (Str2Reg "ff"))) (RegexConcat (RegexStar (RegexUnion (Str2Reg "ddd") (Str2Reg "e"))) (RegexConcat (RegexPlus (RegexPlus (Str2Reg "cc"))) (RegexConcat (RegexPlus (RegexUnion (Str2Reg "aaa") (Str2Reg "bb"))) (RegexConcat (RegexUnion (RegexPlus (Str2Reg "888")) (RegexPlus (Str2Reg "99"))) (RegexConcat (RegexStar (RegexUnion (Str2Reg "6") (Str2Reg "77"))) (RegexConcat (RegexPlus (RegexUnion (Str2Reg "44") (Str2Reg "5"))) (RegexConcat (RegexUnion (RegexPlus (Str2Reg "222")) (RegexPlus (Str2Reg "3"))) (RegexStar (RegexUnion (Str2Reg "0") (Str2Reg "111")))))))))))))))))))))))))))))))))))))))))))))))))))))))))
(check-sat)